(set-logic QF_NRA)
(set-info :source |Benchmarks generated from hycomp (https://es-static.fbk.eu/tools/hycomp/). BMC instances of non-linear hybrid automata taken from: Alessandro Cimatti, Sergio Mover, Stefano Tonetta, A quantifier-free SMT encoding of non-linear hybrid automata, FMCAD 2012 and Alessandro Cimatti, Sergio Mover, Stefano Tonetta, Quantier-free encoding of invariants for Hybrid Systems, Formal Methods in System Design. This instance solves a BMC problem of depth 1 and uses the quantifier free encoding encoding. Contacts: Sergio Mover (mover@fbk.eu), Stefano Tonetta (tonettas@fbk.eu), Alessandro Cimatti (cimatti@fbk.eu).|)
(set-info :smt-lib-version 2.0)
(set-info :category "industrial")
(set-info :status unsat)
;; MathSAT API call trace
;; generated on Mon Mar 19 10:41:32 2012
(declare-fun b.y__AT1 () Real)
(declare-fun b.EVENT.0__AT0 () Bool)
(declare-fun b.speed_y__AT0 () Real)
(declare-fun b.event_is_timed__AT0 () Bool)
(declare-fun b.counter.3__AT0 () Bool)
(declare-fun b.speed_x__AT1 () Real)
(declare-fun b.time__AT1 () Real)
(declare-fun b.x__AT1 () Real)
(declare-fun b.event_is_timed__AT1 () Bool)
(declare-fun b.counter.0__AT1 () Bool)
(declare-fun b.EVENT.1__AT0 () Bool)
(declare-fun b.speed_loss__AT0 () Real)
(declare-fun b.counter.1__AT1 () Bool)
(declare-fun b.speed_x__AT0 () Real)
(declare-fun b.counter.2__AT1 () Bool)
(declare-fun b.time__AT0 () Real)
(declare-fun b.counter.2__AT0 () Bool)
(declare-fun b.counter.3__AT1 () Bool)
(declare-fun b.bool_atom__AT1 () Bool)
(declare-fun b.x__AT0 () Real)
(declare-fun b.speed_y__AT1 () Real)
(declare-fun b.delta__AT1 () Real)
(declare-fun b.bool_atom__AT0 () Bool)
(declare-fun b.y__AT0 () Real)
(declare-fun b.EVENT.1__AT1 () Bool)
(declare-fun b.EVENT.0__AT1 () Bool)
(declare-fun b.counter.0__AT0 () Bool)
(declare-fun b.delta__AT0 () Real)
(declare-fun b.counter.1__AT0 () Bool)
(assert (let ((.def_451 (* (- (/ 49 10)) b.speed_y__AT1)))
(let ((.def_482 (* 3.0 .def_451)))
(let ((.def_550 (* (- 1.0) .def_482)))
(let ((.def_571 (* 2.0 .def_550)))
(let ((.def_580 (* (- 1.0) .def_571)))
(let ((.def_581 (* b.delta__AT1 .def_580)))
(let ((.def_582 (* (- 50.0) .def_581)))
(let ((.def_446 (* b.delta__AT1 b.delta__AT1)))
(let ((.def_509 (* (- 7203.0) .def_446)))
(let ((.def_583 (+ .def_509 .def_582)))
(let ((.def_331 (* b.speed_y__AT1 b.speed_y__AT1)))
(let ((.def_511 (* (- 50.0) .def_331)))
(let ((.def_584 (+ .def_511 .def_583)))
(let ((.def_513 (* 490.0 b.y__AT1)))
(let ((.def_585 (+ .def_513 .def_584)))
(let ((.def_586 (<= .def_585 0.0 )))
(let ((.def_519 (* (- 5.0) .def_331)))
(let ((.def_520 (* 49.0 b.y__AT1)))
(let ((.def_522 (+ .def_520 .def_519)))
(let ((.def_523 (<= .def_522 0.0 )))
(let ((.def_587 (and .def_523 .def_586)))
(let ((.def_526 (* (- 49.0) b.delta__AT1)))
(let ((.def_527 (* 5.0 b.speed_y__AT1)))
(let ((.def_529 (+ .def_527 .def_526)))
(let ((.def_533 (<= 0.0 .def_529)))
(let ((.def_532 (<= 0.0 b.speed_y__AT1)))
(let ((.def_534 (and .def_532 .def_533)))
(let ((.def_530 (<= .def_529 0.0 )))
(let ((.def_525 (<= b.speed_y__AT1 0.0 )))
(let ((.def_531 (and .def_525 .def_530)))
(let ((.def_535 (or .def_531 .def_534)))
(let ((.def_588 (and .def_535 .def_587)))
(let ((.def_572 (* b.delta__AT1 .def_571)))
(let ((.def_573 (* 50.0 .def_572)))
(let ((.def_574 (+ .def_509 .def_573)))
(let ((.def_575 (+ .def_511 .def_574)))
(let ((.def_576 (+ .def_513 .def_575)))
(let ((.def_577 (<= 0.0 .def_576)))
(let ((.def_544 (<= 0.0 .def_522)))
(let ((.def_578 (and .def_544 .def_577)))
(let ((.def_579 (and .def_535 .def_578)))
(let ((.def_589 (or .def_579 .def_588)))
(let ((.def_458 (* (- (/ 49 10)) b.y__AT1)))
(let ((.def_489 (* 2.0 .def_458)))
(let ((.def_558 (* (- 1.0) .def_489)))
(let ((.def_559 (* b.delta__AT1 .def_558)))
(let ((.def_560 (* (- 50.0) .def_559)))
(let ((.def_485 (* 2.0 .def_331)))
(let ((.def_554 (* (- 1.0) .def_485)))
(let ((.def_555 (* b.delta__AT1 .def_554)))
(let ((.def_556 (* (- 25.0) .def_555)))
(let ((.def_564 (+ .def_556 .def_560)))
(let ((.def_551 (* .def_446 .def_550)))
(let ((.def_552 (* (- 50.0) .def_551)))
(let ((.def_565 (+ .def_552 .def_564)))
(let ((.def_462 (* b.y__AT1 b.speed_y__AT1)))
(let ((.def_495 (* 50.0 .def_462)))
(let ((.def_566 (+ .def_495 .def_565)))
(let ((.def_447 (* b.delta__AT1 .def_446)))
(let ((.def_493 (* 2401.0 .def_447)))
(let ((.def_567 (+ .def_493 .def_566)))
(let ((.def_497 (* 25.0 b.speed_x__AT1)))
(let ((.def_568 (+ .def_497 .def_567)))
(let ((.def_569 (<= .def_568 0.0 )))
(let ((.def_479 (* 2.0 .def_462)))
(let ((.def_480 (+ b.speed_x__AT1 .def_479)))
(let ((.def_549 (<= .def_480 0.0 )))
(let ((.def_570 (and .def_549 .def_569)))
(let ((.def_590 (and .def_570 .def_589)))
(let ((.def_506 (* 2.0 .def_482)))
(let ((.def_537 (* (- 1.0) .def_506)))
(let ((.def_538 (* b.delta__AT1 .def_537)))
(let ((.def_539 (* 50.0 .def_538)))
(let ((.def_540 (+ .def_509 .def_539)))
(let ((.def_541 (+ .def_511 .def_540)))
(let ((.def_542 (+ .def_513 .def_541)))
(let ((.def_543 (<= 0.0 .def_542)))
(let ((.def_545 (and .def_543 .def_544)))
(let ((.def_546 (and .def_535 .def_545)))
(let ((.def_507 (* b.delta__AT1 .def_506)))
(let ((.def_508 (* (- 50.0) .def_507)))
(let ((.def_515 (+ .def_509 .def_508)))
(let ((.def_516 (+ .def_511 .def_515)))
(let ((.def_517 (+ .def_513 .def_516)))
(let ((.def_518 (<= .def_517 0.0 )))
(let ((.def_524 (and .def_518 .def_523)))
(let ((.def_536 (and .def_524 .def_535)))
(let ((.def_547 (or .def_536 .def_546)))
(let ((.def_490 (* b.delta__AT1 .def_489)))
(let ((.def_491 (* 50.0 .def_490)))
(let ((.def_486 (* b.delta__AT1 .def_485)))
(let ((.def_487 (* 25.0 .def_486)))
(let ((.def_499 (+ .def_487 .def_491)))
(let ((.def_483 (* .def_446 .def_482)))
(let ((.def_484 (* 50.0 .def_483)))
(let ((.def_500 (+ .def_484 .def_499)))
(let ((.def_501 (+ .def_495 .def_500)))
(let ((.def_502 (+ .def_493 .def_501)))
(let ((.def_503 (+ .def_497 .def_502)))
(let ((.def_504 (<= 0.0 .def_503)))
(let ((.def_481 (<= 0.0 .def_480)))
(let ((.def_505 (and .def_481 .def_504)))
(let ((.def_548 (and .def_505 .def_547)))
(let ((.def_591 (or .def_548 .def_590)))
(let ((.def_463 (* b.delta__AT1 .def_462)))
(let ((.def_464 (* 200.0 .def_463)))
(let ((.def_459 (* .def_446 .def_458)))
(let ((.def_460 (* 200.0 .def_459)))
(let ((.def_470 (+ .def_460 .def_464)))
(let ((.def_455 (* .def_331 .def_446)))
(let ((.def_456 (* 100.0 .def_455)))
(let ((.def_471 (+ .def_456 .def_470)))
(let ((.def_452 (* .def_447 .def_451)))
(let ((.def_453 (* 200.0 .def_452)))
(let ((.def_472 (+ .def_453 .def_471)))
(let ((.def_448 (* b.delta__AT1 .def_447)))
(let ((.def_449 (* 2401.0 .def_448)))
(let ((.def_473 (+ .def_449 .def_472)))
(let ((.def_444 (* b.speed_x__AT1 b.delta__AT1)))
(let ((.def_445 (* 100.0 .def_444)))
(let ((.def_474 (+ .def_445 .def_473)))
(let ((.def_435 (* b.y__AT1 b.y__AT1)))
(let ((.def_466 (* 100.0 .def_435)))
(let ((.def_475 (+ .def_466 .def_474)))
(let ((.def_468 (* 100.0 b.x__AT1)))
(let ((.def_476 (+ .def_468 .def_475)))
(let ((.def_477 (<= 0.0 .def_476)))
(let ((.def_436 (+ b.x__AT1 .def_435)))
(let ((.def_437 (<= 0.0 .def_436)))
(let ((.def_478 (and .def_437 .def_477)))
(let ((.def_592 (and .def_478 .def_591)))
(let ((.def_69 (<= b.speed_loss__AT0 (/ 1 2))))
(let ((.def_66 (<= (/ 1 10) b.speed_loss__AT0)))
(let ((.def_70 (and .def_66 .def_69)))
(let ((.def_593 (and .def_70 .def_592)))
(let ((.def_438 (and .def_70 .def_437)))
(let ((.def_432 (not b.EVENT.0__AT1)))
(let ((.def_430 (not b.EVENT.1__AT1)))
(let ((.def_433 (or .def_430 .def_432)))
(let ((.def_6 (not b.counter.0__AT1)))
(let ((.def_4 (not b.counter.1__AT1)))
(let ((.def_423 (or .def_4 .def_6)))
(let ((.def_427 (or b.counter.3__AT1 .def_423)))
(let ((.def_424 (or b.counter.2__AT1 .def_423)))
(let ((.def_9 (not b.counter.2__AT1)))
(let ((.def_422 (or .def_6 .def_9)))
(let ((.def_425 (and .def_422 .def_424)))
(let ((.def_12 (not b.counter.3__AT1)))
(let ((.def_426 (or .def_12 .def_425)))
(let ((.def_428 (and .def_426 .def_427)))
(let ((.def_434 (and .def_428 .def_433)))
(let ((.def_439 (and .def_434 .def_438)))
(let ((.def_417 (<= 0.0 b.delta__AT0)))
(let ((.def_58 (not b.EVENT.0__AT0)))
(let ((.def_56 (not b.EVENT.1__AT0)))
(let ((.def_255 (and .def_56 .def_58)))
(let ((.def_257 (not .def_255)))
(let ((.def_418 (or .def_257 .def_417)))
(let ((.def_419 (or b.EVENT.1__AT0 .def_418)))
(let ((.def_296 (= b.bool_atom__AT0 b.bool_atom__AT1)))
(let ((.def_291 (= b.counter.0__AT1 b.counter.0__AT0)))
(let ((.def_289 (= b.counter.1__AT1 b.counter.1__AT0)))
(let ((.def_287 (= b.counter.2__AT1 b.counter.2__AT0)))
(let ((.def_286 (= b.counter.3__AT1 b.counter.3__AT0)))
(let ((.def_288 (and .def_286 .def_287)))
(let ((.def_290 (and .def_288 .def_289)))
(let ((.def_292 (and .def_290 .def_291)))
(let ((.def_413 (and .def_292 .def_296)))
(let ((.def_414 (or .def_257 .def_413)))
(let ((.def_415 (or b.EVENT.1__AT0 .def_414)))
(let ((.def_395 (* b.speed_y__AT0 b.delta__AT0)))
(let ((.def_396 (* 10.0 .def_395)))
(let ((.def_400 (* (- 10.0) b.y__AT1)))
(let ((.def_404 (+ .def_400 .def_396)))
(let ((.def_79 (* b.delta__AT0 b.delta__AT0)))
(let ((.def_397 (* (- 49.0) .def_79)))
(let ((.def_405 (+ .def_397 .def_404)))
(let ((.def_402 (* 10.0 b.y__AT0)))
(let ((.def_406 (+ .def_402 .def_405)))
(let ((.def_407 (= .def_406 0.0 )))
(let ((.def_390 (* (- 5.0) b.speed_y__AT1)))
(let ((.def_175 (* (- 49.0) b.delta__AT0)))
(let ((.def_391 (+ .def_175 .def_390)))
(let ((.def_176 (* 5.0 b.speed_y__AT0)))
(let ((.def_392 (+ .def_176 .def_391)))
(let ((.def_393 (= .def_392 0.0 )))
(let ((.def_386 (* (- 1.0) b.x__AT1)))
(let ((.def_76 (* b.speed_x__AT0 b.delta__AT0)))
(let ((.def_387 (+ .def_76 .def_386)))
(let ((.def_388 (+ b.x__AT0 .def_387)))
(let ((.def_389 (= .def_388 0.0 )))
(let ((.def_394 (and .def_389 .def_393)))
(let ((.def_408 (and .def_394 .def_407)))
(let ((.def_281 (= b.speed_x__AT0 b.speed_x__AT1)))
(let ((.def_409 (and .def_281 .def_408)))
(let ((.def_410 (or .def_257 .def_409)))
(let ((.def_278 (= b.y__AT0 b.y__AT1)))
(let ((.def_275 (= b.x__AT0 b.x__AT1)))
(let ((.def_380 (and .def_275 .def_278)))
(let ((.def_381 (and .def_281 .def_380)))
(let ((.def_284 (= b.speed_y__AT0 b.speed_y__AT1)))
(let ((.def_382 (and .def_284 .def_381)))
(let ((.def_377 (= b.delta__AT0 0.0 )))
(let ((.def_378 (and .def_255 .def_377)))
(let ((.def_379 (not .def_378)))
(let ((.def_383 (or .def_379 .def_382)))
(let ((.def_384 (or b.EVENT.1__AT0 .def_383)))
(let ((.def_369 (and .def_281 .def_284)))
(let ((.def_370 (and .def_292 .def_369)))
(let ((.def_371 (or b.bool_atom__AT0 .def_370)))
(let ((.def_345 (or .def_6 b.counter.0__AT0)))
(let ((.def_39 (not b.counter.0__AT0)))
(let ((.def_344 (or b.counter.0__AT1 .def_39)))
(let ((.def_346 (and .def_344 .def_345)))
(let ((.def_347 (and .def_4 .def_346)))
(let ((.def_348 (or b.counter.1__AT0 .def_347)))
(let ((.def_37 (not b.counter.1__AT0)))
(let ((.def_343 (or b.counter.1__AT1 .def_37)))
(let ((.def_349 (and .def_343 .def_348)))
(let ((.def_360 (and .def_9 .def_349)))
(let ((.def_361 (or b.counter.2__AT0 .def_360)))
(let ((.def_355 (and .def_4 .def_39)))
(let ((.def_356 (or b.counter.1__AT0 .def_355)))
(let ((.def_357 (and .def_343 .def_356)))
(let ((.def_358 (and b.counter.2__AT1 .def_357)))
(let ((.def_42 (not b.counter.2__AT0)))
(let ((.def_359 (or .def_42 .def_358)))
(let ((.def_362 (and .def_359 .def_361)))
(let ((.def_363 (and b.counter.3__AT1 .def_362)))
(let ((.def_364 (or b.counter.3__AT0 .def_363)))
(let ((.def_350 (and b.counter.2__AT1 .def_349)))
(let ((.def_351 (or b.counter.2__AT0 .def_350)))
(let ((.def_339 (or b.counter.1__AT1 b.counter.1__AT0)))
(let ((.def_337 (and .def_4 b.counter.0__AT1)))
(let ((.def_338 (or .def_37 .def_337)))
(let ((.def_340 (and .def_338 .def_339)))
(let ((.def_341 (and .def_9 .def_340)))
(let ((.def_342 (or .def_42 .def_341)))
(let ((.def_352 (and .def_342 .def_351)))
(let ((.def_353 (and .def_12 .def_352)))
(let ((.def_45 (not b.counter.3__AT0)))
(let ((.def_354 (or .def_45 .def_353)))
(let ((.def_365 (and .def_354 .def_364)))
(let ((.def_326 (* b.speed_x__AT0 b.speed_x__AT0)))
(let ((.def_93 (* b.speed_y__AT0 b.speed_y__AT0)))
(let ((.def_327 (+ .def_93 .def_326)))
(let ((.def_312 (* (- 1.0) b.speed_loss__AT0)))
(let ((.def_313 (+ 1.0 .def_312)))
(let ((.def_325 (* .def_313 .def_313)))
(let ((.def_328 (* .def_325 .def_327)))
(let ((.def_329 (* (- 1.0) .def_328)))
(let ((.def_333 (+ .def_329 .def_331)))
(let ((.def_324 (* b.speed_x__AT1 b.speed_x__AT1)))
(let ((.def_334 (+ .def_324 .def_333)))
(let ((.def_335 (= .def_334 0.0 )))
(let ((.def_302 (* 2.0 b.y__AT0)))
(let ((.def_316 (* .def_302 .def_313)))
(let ((.def_317 (* b.speed_y__AT0 .def_316)))
(let ((.def_314 (* b.speed_x__AT0 .def_313)))
(let ((.def_320 (+ .def_314 .def_317)))
(let ((.def_310 (* 2.0 b.y__AT1)))
(let ((.def_311 (* b.speed_y__AT1 .def_310)))
(let ((.def_321 (+ .def_311 .def_320)))
(let ((.def_322 (+ b.speed_x__AT1 .def_321)))
(let ((.def_323 (= .def_322 0.0 )))
(let ((.def_336 (and .def_323 .def_335)))
(let ((.def_366 (and .def_336 .def_365)))
(let ((.def_309 (not b.bool_atom__AT0)))
(let ((.def_367 (or .def_309 .def_366)))
(let ((.def_303 (* b.speed_y__AT0 .def_302)))
(let ((.def_304 (+ b.speed_x__AT0 .def_303)))
(let ((.def_305 (<= 0.0 .def_304)))
(let ((.def_306 (not .def_305)))
(let ((.def_61 (* b.y__AT0 b.y__AT0)))
(let ((.def_62 (+ b.x__AT0 .def_61)))
(let ((.def_301 (= .def_62 0.0 )))
(let ((.def_307 (and .def_301 .def_306)))
(let ((.def_308 (= b.bool_atom__AT0 .def_307)))
(let ((.def_368 (and .def_308 .def_367)))
(let ((.def_372 (and .def_368 .def_371)))
(let ((.def_373 (and .def_275 .def_372)))
(let ((.def_374 (and .def_278 .def_373)))
(let ((.def_375 (or .def_255 .def_374)))
(let ((.def_376 (or b.EVENT.1__AT0 .def_375)))
(let ((.def_385 (and .def_376 .def_384)))
(let ((.def_411 (and .def_385 .def_410)))
(let ((.def_262 (= b.time__AT0 b.time__AT1)))
(let ((.def_276 (and .def_262 .def_275)))
(let ((.def_279 (and .def_276 .def_278)))
(let ((.def_282 (and .def_279 .def_281)))
(let ((.def_285 (and .def_282 .def_284)))
(let ((.def_293 (and .def_285 .def_292)))
(let ((.def_297 (and .def_293 .def_296)))
(let ((.def_298 (or .def_56 .def_297)))
(let ((.def_265 (* (- 1.0) b.time__AT1)))
(let ((.def_268 (+ b.delta__AT0 .def_265)))
(let ((.def_269 (+ b.time__AT0 .def_268)))
(let ((.def_270 (= .def_269 0.0 )))
(let ((.def_271 (or .def_257 .def_270)))
(let ((.def_272 (or b.EVENT.1__AT0 .def_271)))
(let ((.def_263 (or .def_255 .def_262)))
(let ((.def_264 (or b.EVENT.1__AT0 .def_263)))
(let ((.def_273 (and .def_264 .def_272)))
(let ((.def_299 (and .def_273 .def_298)))
(let ((.def_259 (= .def_257 b.event_is_timed__AT1)))
(let ((.def_256 (= b.event_is_timed__AT0 .def_255)))
(let ((.def_260 (and .def_256 .def_259)))
(let ((.def_300 (and .def_260 .def_299)))
(let ((.def_412 (and .def_300 .def_411)))
(let ((.def_416 (and .def_412 .def_415)))
(let ((.def_420 (and .def_416 .def_419)))
(let ((.def_421 (and .def_56 .def_420)))
(let ((.def_440 (and .def_421 .def_439)))
(let ((.def_40 (and .def_37 .def_39)))
(let ((.def_43 (and .def_40 .def_42)))
(let ((.def_46 (and .def_43 .def_45)))
(let ((.def_441 (and .def_46 .def_440)))
(let ((.def_88 (* (- (/ 49 10)) b.speed_y__AT0)))
(let ((.def_122 (* 3.0 .def_88)))
(let ((.def_203 (* (- 1.0) .def_122)))
(let ((.def_225 (* 2.0 .def_203)))
(let ((.def_237 (* (- 1.0) .def_225)))
(let ((.def_238 (* b.delta__AT0 .def_237)))
(let ((.def_239 (* (- 50.0) .def_238)))
(let ((.def_156 (* (- 50.0) .def_93)))
(let ((.def_243 (+ .def_156 .def_239)))
(let ((.def_154 (* (- 7203.0) .def_79)))
(let ((.def_244 (+ .def_154 .def_243)))
(let ((.def_159 (* 490.0 b.y__AT0)))
(let ((.def_245 (+ .def_159 .def_244)))
(let ((.def_246 (<= .def_245 0.0 )))
(let ((.def_167 (* (- 5.0) .def_93)))
(let ((.def_168 (* 49.0 b.y__AT0)))
(let ((.def_170 (+ .def_168 .def_167)))
(let ((.def_171 (<= .def_170 0.0 )))
(let ((.def_247 (and .def_171 .def_246)))
(let ((.def_178 (+ .def_176 .def_175)))
(let ((.def_182 (<= 0.0 .def_178)))
(let ((.def_181 (<= 0.0 b.speed_y__AT0)))
(let ((.def_183 (and .def_181 .def_182)))
(let ((.def_179 (<= .def_178 0.0 )))
(let ((.def_173 (<= b.speed_y__AT0 0.0 )))
(let ((.def_180 (and .def_173 .def_179)))
(let ((.def_184 (or .def_180 .def_183)))
(let ((.def_248 (and .def_184 .def_247)))
(let ((.def_226 (* b.delta__AT0 .def_225)))
(let ((.def_227 (* 50.0 .def_226)))
(let ((.def_231 (+ .def_156 .def_227)))
(let ((.def_232 (+ .def_154 .def_231)))
(let ((.def_233 (+ .def_159 .def_232)))
(let ((.def_234 (<= 0.0 .def_233)))
(let ((.def_197 (<= 0.0 .def_170)))
(let ((.def_235 (and .def_197 .def_234)))
(let ((.def_236 (and .def_184 .def_235)))
(let ((.def_249 (or .def_236 .def_248)))
(let ((.def_97 (* (- (/ 49 10)) b.y__AT0)))
(let ((.def_131 (* 2.0 .def_97)))
(let ((.def_212 (* (- 1.0) .def_131)))
(let ((.def_213 (* b.delta__AT0 .def_212)))
(let ((.def_214 (* (- 50.0) .def_213)))
(let ((.def_126 (* 2.0 .def_93)))
(let ((.def_207 (* (- 1.0) .def_126)))
(let ((.def_208 (* b.delta__AT0 .def_207)))
(let ((.def_210 (* (- 25.0) .def_208)))
(let ((.def_218 (+ .def_210 .def_214)))
(let ((.def_204 (* .def_79 .def_203)))
(let ((.def_205 (* (- 50.0) .def_204)))
(let ((.def_219 (+ .def_205 .def_218)))
(let ((.def_101 (* b.y__AT0 b.speed_y__AT0)))
(let ((.def_137 (* 50.0 .def_101)))
(let ((.def_220 (+ .def_137 .def_219)))
(let ((.def_80 (* b.delta__AT0 .def_79)))
(let ((.def_135 (* 2401.0 .def_80)))
(let ((.def_221 (+ .def_135 .def_220)))
(let ((.def_139 (* 25.0 b.speed_x__AT0)))
(let ((.def_222 (+ .def_139 .def_221)))
(let ((.def_223 (<= .def_222 0.0 )))
(let ((.def_118 (* 2.0 .def_101)))
(let ((.def_119 (+ b.speed_x__AT0 .def_118)))
(let ((.def_202 (<= .def_119 0.0 )))
(let ((.def_224 (and .def_202 .def_223)))
(let ((.def_250 (and .def_224 .def_249)))
(let ((.def_148 (* 2.0 .def_122)))
(let ((.def_187 (* (- 1.0) .def_148)))
(let ((.def_188 (* b.delta__AT0 .def_187)))
(let ((.def_189 (* 50.0 .def_188)))
(let ((.def_193 (+ .def_156 .def_189)))
(let ((.def_194 (+ .def_154 .def_193)))
(let ((.def_195 (+ .def_159 .def_194)))
(let ((.def_196 (<= 0.0 .def_195)))
(let ((.def_198 (and .def_196 .def_197)))
(let ((.def_199 (and .def_184 .def_198)))
(let ((.def_149 (* b.delta__AT0 .def_148)))
(let ((.def_151 (* (- 50.0) .def_149)))
(let ((.def_161 (+ .def_156 .def_151)))
(let ((.def_162 (+ .def_154 .def_161)))
(let ((.def_163 (+ .def_159 .def_162)))
(let ((.def_164 (<= .def_163 0.0 )))
(let ((.def_172 (and .def_164 .def_171)))
(let ((.def_185 (and .def_172 .def_184)))
(let ((.def_200 (or .def_185 .def_199)))
(let ((.def_132 (* b.delta__AT0 .def_131)))
(let ((.def_133 (* 50.0 .def_132)))
(let ((.def_127 (* b.delta__AT0 .def_126)))
(let ((.def_129 (* 25.0 .def_127)))
(let ((.def_141 (+ .def_129 .def_133)))
(let ((.def_123 (* .def_79 .def_122)))
(let ((.def_125 (* 50.0 .def_123)))
(let ((.def_142 (+ .def_125 .def_141)))
(let ((.def_143 (+ .def_137 .def_142)))
(let ((.def_144 (+ .def_135 .def_143)))
(let ((.def_145 (+ .def_139 .def_144)))
(let ((.def_146 (<= 0.0 .def_145)))
(let ((.def_120 (<= 0.0 .def_119)))
(let ((.def_147 (and .def_120 .def_146)))
(let ((.def_201 (and .def_147 .def_200)))
(let ((.def_251 (or .def_201 .def_250)))
(let ((.def_102 (* b.delta__AT0 .def_101)))
(let ((.def_103 (* 200.0 .def_102)))
(let ((.def_98 (* .def_79 .def_97)))
(let ((.def_99 (* 200.0 .def_98)))
(let ((.def_109 (+ .def_99 .def_103)))
(let ((.def_94 (* .def_79 .def_93)))
(let ((.def_95 (* 100.0 .def_94)))
(let ((.def_110 (+ .def_95 .def_109)))
(let ((.def_89 (* .def_80 .def_88)))
(let ((.def_91 (* 200.0 .def_89)))
(let ((.def_111 (+ .def_91 .def_110)))
(let ((.def_81 (* b.delta__AT0 .def_80)))
(let ((.def_83 (* 2401.0 .def_81)))
(let ((.def_112 (+ .def_83 .def_111)))
(let ((.def_78 (* 100.0 .def_76)))
(let ((.def_113 (+ .def_78 .def_112)))
(let ((.def_105 (* 100.0 .def_61)))
(let ((.def_114 (+ .def_105 .def_113)))
(let ((.def_107 (* 100.0 b.x__AT0)))
(let ((.def_115 (+ .def_107 .def_114)))
(let ((.def_116 (<= 0.0 .def_115)))
(let ((.def_63 (<= 0.0 .def_62)))
(let ((.def_117 (and .def_63 .def_116)))
(let ((.def_252 (and .def_117 .def_251)))
(let ((.def_253 (and .def_70 .def_252)))
(let ((.def_71 (and .def_63 .def_70)))
(let ((.def_59 (or .def_56 .def_58)))
(let ((.def_49 (or .def_37 .def_39)))
(let ((.def_53 (or b.counter.3__AT0 .def_49)))
(let ((.def_50 (or b.counter.2__AT0 .def_49)))
(let ((.def_48 (or .def_39 .def_42)))
(let ((.def_51 (and .def_48 .def_50)))
(let ((.def_52 (or .def_45 .def_51)))
(let ((.def_54 (and .def_52 .def_53)))
(let ((.def_60 (and .def_54 .def_59)))
(let ((.def_72 (and .def_60 .def_71)))
(let ((.def_34 (= b.speed_y__AT0 1.0 )))
(let ((.def_31 (= b.speed_x__AT0 1.0 )))
(let ((.def_27 (= b.y__AT0 10.0 )))
(let ((.def_23 (= b.x__AT0 (- 9.0) )))
(let ((.def_17 (= b.time__AT0 0.0 )))
(let ((.def_19 (and .def_17 b.event_is_timed__AT0)))
(let ((.def_24 (and .def_19 .def_23)))
(let ((.def_28 (and .def_24 .def_27)))
(let ((.def_32 (and .def_28 .def_31)))
(let ((.def_35 (and .def_32 .def_34)))
(let ((.def_47 (and .def_35 .def_46)))
(let ((.def_73 (and .def_47 .def_72)))
(let ((.def_7 (and .def_4 .def_6)))
(let ((.def_10 (and .def_7 .def_9)))
(let ((.def_13 (and .def_10 .def_12)))
(let ((.def_14 (not .def_13)))
(let ((.def_74 (and .def_14 .def_73)))
(let ((.def_254 (and .def_74 .def_253)))
(let ((.def_442 (and .def_254 .def_441)))
(let ((.def_594 (and .def_442 .def_593)))
.def_594))))))))))))))))))))))))))))))))))))))))))))))))))))))))))))))))))))))))))))))))))))))))))))))))))))))))))))))))))))))))))))))))))))))))))))))))))))))))))))))))))))))))))))))))))))))))))))))))))))))))))))))))))))))))))))))))))))))))))))))))))))))))))))))))))))))))))))))))))))))))))))))))))))))))))))))))))))))))))))))))))))))))))))))))))))))))))))))))))))))))))))))))))))))))))))))))))))))))))))))))))))))))))))))))))))))))))))))))))))))))))))))))))))))))))))))))))))))))))
(check-sat)
(exit)
